500 504 505 506 
560 564 565 566 
620 624 625 626 
679 684 685 686 
741 746 747 748 
775 780 781 782 
805 810 811 812 
835 840 841 842 
865 870 871 872 
895 900 901 902 
925 930 931 932 
955 960 961 962 
985 990 991 992 
1015 1020 1021 1022 
1045 1050 1051 1052 
1075 1080 1081 1082 
1135 1140 1141 1142 
1191 1195 1196 1197 
1251 1255 1256 1257 
1311 1315 1316 1317 
1371 1375 1376 1377 
1431 1435 1436 1437 
1491 1495 1496 1497 
